CUST NO.   XCOORD.    YCOORD.    DEMAND   READY TIME   DUE DATE   SERVICE TIME
    1      35.00      35.00       0.00       0.00    1000.00       0.00
    2      41.00      49.00      10.00     190.00     974.00      10.00
    3      35.00      17.00       7.00      18.00     792.00      10.00
    4      55.00      45.00      13.00     289.00     822.00      10.00
    5      55.00      20.00      19.00     679.00     800.00      10.00
    6      15.00      30.00      26.00      20.00     906.00      10.00
    7      25.00      30.00       3.00     355.00     574.00      10.00
    8      20.00      50.00       5.00      72.00     669.00      10.00
    9      10.00      43.00       9.00     393.00     492.00      10.00
   10      55.00      60.00      16.00     394.00     503.00      10.00
   11      30.00      60.00      16.00     517.00     692.00      10.00
   12      20.00      65.00      12.00     206.00     325.00      10.00
   13      50.00      35.00      19.00      15.00     725.00      10.00
   14      30.00      25.00      23.00     694.00     823.00      10.00
   15      15.00      10.00      20.00      32.00     694.00      10.00
   16      30.00       5.00       8.00     176.00     299.00      10.00
   17      10.00      20.00      19.00     102.00     543.00      10.00
   18       5.00      30.00       2.00     673.00     930.00      10.00
   19      20.00      40.00      12.00     229.00     582.00      10.00
   20      15.00      60.00      17.00      95.00     552.00      10.00
   21      45.00      65.00       9.00     418.00     829.00      10.00
   22      45.00      20.00      11.00      18.00     727.00      10.00
   23      45.00      10.00      18.00     349.00     554.00      10.00
   24      55.00       5.00      29.00     206.00     325.00      10.00
   25      65.00      35.00       3.00     435.00     960.00      10.00
   26      65.00      20.00       6.00     826.00     956.00      10.00
   27      45.00      30.00      17.00     328.00     927.00      10.00
   28      35.00      40.00      16.00      44.00     315.00      10.00
   29      41.00      37.00      16.00       6.00     526.00      10.00
   30      64.00      42.00       9.00      29.00     513.00      10.00
   31      40.00      60.00      21.00     199.00     414.00      10.00
   32      31.00      52.00      27.00      17.00     744.00      10.00
   33      35.00      69.00      23.00     482.00     955.00      10.00
   34      53.00      52.00      11.00      24.00     299.00      10.00
   35      65.00      55.00      14.00     265.00     878.00      10.00
   36      63.00      65.00       8.00     626.00     873.00      10.00
   37       2.00      60.00       5.00      41.00     328.00      10.00
   38      20.00      20.00       8.00     339.00     960.00      10.00
   39       5.00       5.00      16.00     298.00     409.00      10.00
   40      60.00      12.00      31.00      33.00     344.00      10.00
   41      40.00      25.00       9.00     300.00     497.00      10.00
   42      42.00       7.00       5.00     336.00     571.00      10.00
   43      24.00      12.00       5.00      25.00     292.00      10.00
   44      23.00       3.00       7.00     458.00     867.00      10.00
   45      11.00      14.00      18.00     230.00     343.00      10.00
   46       6.00      38.00      16.00      29.00     309.00      10.00
   47       2.00      48.00       1.00     338.00     805.00      10.00
   48       8.00      56.00      27.00      34.00     602.00      10.00
   49      13.00      52.00      36.00     200.00     962.00      10.00
   50       6.00      68.00      30.00     441.00     600.00      10.00
   51      47.00      47.00      13.00     272.00     917.00      10.00
